c --- [ banner ] -------------------------------------------------------------
c 
c CaDiCaL Radically Simplified CDCL SAT Solver
c Copyright (c) 2016-2021 A. Biere, M. Fleury, N. Froleyks
c 
c Version 1.5.2 ca9bff05c11bde5eae4912f9932871d1527e61d8
c g++ (GCC) 9.3.0 -Wall -Wextra -O3 -DNDEBUG
c Thu Jul 28 23:42:48 EDT 2022 Linux gra-login3 3.10.0-1160.66.1.el7.x86_64 x86_64
c 
c --- [ limit ] --------------------------------------------------------------
c 
c setting conflict limit to 200000 conflicts (due to '200000')
c 
c --- [ parsing input ] ------------------------------------------------------
c 
c reading DIMACS file from '23.cubes47.adj'
c opening file to read '23.cubes47.adj'
c found 'p cnf 5320 914890' header
c parsed 914890 clauses in 8.29 seconds process time
c closing file '23.cubes47.adj'
c after reading 637829975 bytes 608.3 MB
c 
c --- [ options ] ------------------------------------------------------------
c 
c all options are set to their default value
c 
c --- [ solving ] ------------------------------------------------------------
c 
c time measured in process time since initialization
c 
c  seconds   reductions  redundant  irredundant
c          MB    restarts       trail      variables
c           level   conflicts       glue        remaining
c 
c *  8.30 626  0 0   0    0    0  0% 0 914847 2090 39%
c {  8.74 650  0 0   0    0    0  0% 0 914847 2090 39%
c i  9.53 683 553 0   3   29   26 27% 5 914847 2062 39%
c i  9.98 690 424 0   3   40   34 26% 4 914847 2061 39%
c i 10.01 691 394 0   3   43   36 26% 5 914847 2060 39%
c i 10.03 691 384 0   3   44   36 26% 4 914847 2059 39%
c i 10.03 691 375 0   3   45   36 26% 4 914847 2058 39%
c i 10.03 691 367 0   3   46   36 26% 4 914847 2057 39%
c i 10.03 691 358 0   3   47   36 25% 4 914847 2056 39%
c - 12.68 664 64 1  24  300   75 16% 8 230385 2051 39%
c i 13.01 665 46 1  29  457   98 16% 8 230385 2050 39%
c i 13.27 665 49 1  33  479  119 17% 10 230385 2049 39%
c i 13.34 665 49 1  37  496  133 17% 11 230385 2048 38%
c i 13.35 665 49 1  38  499  135 17% 11 230385 2047 38%
c i 13.36 665 49 1  39  500  135 17% 11 230385 2046 38%
c i 13.36 665 48 1  39  502  136 17% 11 230385 2045 38%
c i 13.45 665 49 1  42  512  143 17% 12 230385 2044 38%
c i 13.45 665 49 1  42  513  143 17% 12 230385 2043 38%
c i 13.46 665 49 1  43  517  146 17% 12 230385 2042 38%
c i 13.46 665 49 1  43  518  146 17% 12 230385 2041 38%
c 
c  seconds   reductions  redundant   irredundant
c          MB    restarts       trail       variables
c           level   conflicts       glue         remaining
c 
c i 13.46 665 49 1  44  520  146 17% 12 230385 2040 38%
c i 13.46 665 48 1  44  521  146 17% 12 230385 2039 38%
c i 13.50 665 48 1  47  529  152 17% 12 230385 2038 38%
c i 13.50 665 48 1  48  533  155 18% 12 230385 2037 38%
c i 13.52 665 48 1  49  536  156 18% 12 230385 2036 38%
c i 13.54 665 48 1  51  541  160 18% 12 230385 2035 38%
c i 13.54 665 48 1  51  542  160 18% 12 230385 2034 38%
c i 13.59 665 49 1  56  561  176 18% 13 230385 2033 38%
c i 13.60 665 49 1  57  564  177 18% 14 230385 2032 38%
c i 13.61 665 50 1  58  569  179 18% 13 230385 2029 38%
c i 13.61 665 50 1  59  570  179 18% 13 230385 2028 38%
c i 13.70 665 34 1  74  954  234 18% 11 230385 2027 38%
c i 13.71 665 34 1  74  956  235 18% 11 230385 2026 38%
c i 13.71 665 34 1  74  957  235 18% 11 230385 2025 38%
c i 13.71 665 34 1  74  958  235 18% 11 230385 2024 38%
c i 13.79 665 34 1  74  975  249 18% 11 230385 2023 38%
c i 13.80 665 34 1  74  976  249 18% 11 230385 2022 38%
c i 13.80 665 34 1  74  977  249 18% 11 230385 2021 38%
c i 13.81 665 34 1  74  985  256 18% 11 230385 2020 38%
c i 13.82 665 33 1  74  986  256 18% 11 230385 2019 38%
c 
c  seconds   reductions  redundant   irredundant
c          MB    restarts       trail       variables
c           level   conflicts       glue         remaining
c 
c i 13.82 665 33 1  74  987  256 18% 11 230385 2018 38%
c i 13.82 665 33 1  74  988  256 18% 11 230385 2017 38%
c i 13.82 665 33 1  74  989  256 18% 11 230385 2016 38%
c i 13.82 665 33 1  74  991  257 18% 11 230385 2015 38%
c } 13.88 665 35 1  74 1000  266 18% 11 230385 2015 38%
c [ 13.88 665  0 1  74 1000  266  0% 0 230385 2015 38%
c O 13.89 665 116 1  74 1003  269 21% 13 230385 2015 38%
c i 13.99 665 53 1  74 1007  272 22% 8 230385 2014 38%
c i 14.00 665 38 1  74 1011  275 25% 9 230385 2013 38%
c i 14.00 665 33 1  74 1014  277 25% 9 230385 2012 38%
c i 14.00 665 31 1  74 1015  277 26% 9 230385 2011 38%
c i 14.01 665 24 1  74 1025  285 26% 9 230385 2010 38%
c i 14.03 665 23 1  74 1026  285 26% 9 230385 2009 38%
c i 14.03 665 24 1  74 1029  287 27% 10 230385 2008 38%
c i 14.03 665 25 1  74 1033  290 27% 11 230385 2007 38%
c i 14.09 665 34 1  74 1050  303 28% 19 230385 2006 38%
c i 14.13 665 33 1  74 1081  332 30% 21 230385 2005 38%
c i 14.13 665 32 1  74 1082  332 30% 21 230385 2004 38%
c i 14.14 665 31 1  74 1094  340 30% 21 230385 2003 38%
c i 14.15 665 29 1  74 1119  356 30% 19 230385 2002 38%
c 
c  seconds   reductions  redundant   irredundant
c          MB    restarts       trail       variables
c           level   conflicts       glue         remaining
c 
c - 14.56 757 29 2  74 1119  340 30% 19 230238 2002 38%
c i 14.66 757 26 2  74 1173  383 30% 18 230238 2001 38%
c i 14.68 757 26 2  74 1180  388 30% 18 230238 2000 38%
c i 14.69 757 26 2  74 1188  391 30% 18 230238 1999 38%
c i 14.69 757 26 2  74 1192  393 30% 18 230238 1998 38%
c i 14.70 757 26 2  74 1206  406 30% 19 230238 1997 38%
c i 14.71 757 26 2  74 1221  413 30% 19 230238 1996 38%
c i 14.71 757 26 2  74 1223  414 30% 19 230238 1995 38%
c i 14.72 757 26 2  74 1231  418 30% 19 230238 1984 37%
c i 14.72 757 25 2  74 1244  429 30% 18 230238 1983 37%
c i 14.73 757 24 2  74 1274  443 29% 18 230238 1982 37%
c i 14.74 757 24 2  74 1290  454 29% 18 230238 1981 37%
c i 14.74 757 24 2  74 1295  457 29% 18 230238 1980 37%
c i 14.74 757 24 2  74 1300  459 29% 18 230238 1979 37%
c i 14.75 757 24 2  74 1322  475 30% 18 230238 1978 37%
c i 14.76 757 24 2  74 1344  492 30% 18 230238 1977 37%
c i 14.78 757 25 2  74 1434  557 30% 19 230238 1976 37%
c i 14.78 757 25 2  74 1435  557 30% 19 230238 1975 37%
c i 14.78 757 25 2  74 1436  557 30% 19 230238 1974 37%
c i 14.78 757 25 2  74 1437  557 30% 19 230238 1973 37%
c 
c  seconds   reductions  redundant   irredundant
c          MB    restarts       trail       variables
c           level   conflicts       glue         remaining
c 
c i 14.81 757 24 2  74 1518  615 30% 19 230238 1972 37%
c i 14.82 757 25 2  74 1541  630 30% 19 230238 1971 37%
c i 14.82 757 24 2  74 1542  630 30% 19 230238 1970 37%
c i 14.82 757 24 2  74 1543  630 30% 19 230238 1969 37%
c i 14.83 757 24 2  74 1547  633 30% 19 230238 1968 37%
c ] 14.84 757 24 2  74 1576  655 30% 19 230238 1968 37%
c 1 14.84 757 24 2  74 1576  655 30% 19 230238 1968 37%
c 
c --- [ writing output ] -----------------------------------------------------
c 
c writing simplified CNF to DIMACS file 'simp/23.cubes47.adj.simp1'
c * 14.84 757 24 2  74 1576  655 30% 19 230238 1968 37%
c opening file to write 'simp/23.cubes47.adj.simp1'
c writing 'p cnf 5320 229971' header
c closing file 'simp/23.cubes47.adj.simp1'
c after writing 96728913 bytes 92.2 MB
c wrote 229971 clauses in 0.79 seconds process time
c 
c --- [ writing extension ] --------------------------------------------------
c 
c writing extension stack to 'simp/23.cubes47.adj.ext1'
c opening file to write 'simp/23.cubes47.adj.ext1'
c closing file 'simp/23.cubes47.adj.ext1'
c after writing 7490 bytes 0.0 MB
c wrote 515 witnesses in 0.00 seconds process time
c 
c --- [ result ] -------------------------------------------------------------
c 
s SATISFIABLE
c 
c --- [ run-time profiling ] -------------------------------------------------
c 
c process time taken by individual solving procedures
c (percentage relative to process time for solving)
c 
c         8.29  126.65% parse
c         6.55   99.99% search
c         5.15   78.61% unstable
c         0.96   14.65% stable
c         0.44    6.74% lucky
c         0.00    0.00% simplify
c   =================================
c         6.55   41.87% solve
c 
c last line shows process time for solving
c (percentage relative to total process time)
c 
c --- [ statistics ] ---------------------------------------------------------
c 
c chronological:               339        21.51 %  of conflicts
c conflicts:                  1576       240.71    per second
c decisions:                 15557      2376.07    per second
c fixed:                       515         9.68 %  of all variables
c learned:                    1555        98.67 %  per conflict
c learned_lits:             148726       100.00 %  learned literals
c minimized:                     0         0.00 %  learned literals
c shrunken:                  72728        48.90 %  learned literals
c minishrunken:              15074        10.14 %  learned literals
c propagations:             197680         0.03 M  per second
c reduced:                      16         1.02 %  per conflict
c rephased:                      1      1576.00    interval
c restarts:                     74        21.30    interval
c stabilizing:                   1        36.55 %  of conflicts
c subsumed:                    796         0.04 %  of all clauses
c 
c seconds are measured in process time for solving
c 
c --- [ resources ] ----------------------------------------------------------
c 
c total process time since initialization:        15.64    seconds
c total real time since initialization:           16.98    seconds
c maximum resident set size of process:          757.05    MB
c 
c --- [ shutting down ] ------------------------------------------------------
c 
c exit 10
WARNING! DIMACS header mismatch: wrong number of variables.
============================[ Problem Statistics ]=============================
|                                                                             |
|  Number of variables:          5282                                         |
|  Number of clauses:          229971                                         |
|  Parse time:                   1.38 s                                       |
|  Simplification time:          0.04 s                                       |
|                                                                             |
============================[ Search Statistics ]====================================================
| Conflicts |          ORIGINAL         |          LEARNT          | Num Sols |      SUBGRAPHS      |
|           |    Vars  Clauses Literals |    Limit  Clauses Lit/Cl |          | Canonical Noncanon. |
=====================================================================================================
|       119 |    5195   229990 21700651 |     2000      111     57 |        0 |        23        19 |
|       269 |    5192   229990 21700651 |     2000      258     44 |        0 |        45        19 |
|       519 |    5175   230015 21701426 |     2000      491     46 |        0 |        97        44 |
|       864 |    5167   230023 21701707 |     2000      828     70 |        0 |       113        52 |
|      1381 |    5157   230034 21702138 |     2000     1335     75 |        0 |       145        63 |
|      2227 |    5152   230121 21704205 |     3576     1202     36 |        0 |       188       150 |
|      3457 |    5148   230212 21705836 |     3576     2428     52 |        0 |       249       241 |
|      5212 |    5148   230259 21706747 |     4988     2400     49 |        0 |       294       288 |
|      7937 |    5147   230422 21709971 |     6294     2631     33 |        0 |       371       451 |
|     12097 |    5147   230738 21715999 |     7549     3646     36 |        0 |       522       767 |
|     18315 |    5147   231190 21728070 |     8776     6091     44 |        0 |       755      1219 |
|     27736 |    5146   231962 21747058 |    11201     6137     33 |        0 |      1350      1991 |
|     41274 |    5146   232526 21759687 |    13617     7891     40 |        0 |      1837      2555 |
|     61118 |    5146   232909 21767683 |    16009    13527     64 |        0 |      2482      2938 |
|     92566 |    5146   235165 21807405 |    19618    19184     63 |        0 |      3996      5194 |
|    138241 |    5146   237051 21844978 |    24418    22059     65 |        0 |      5703      7080 |
|    210397 |    5146   243352 21973801 |    30422    27219     57 |        0 |      8995     13552 |
|    319090 |    5146   253519 22160241 |    37612    35702     61 |        0 |     15899     23719 |
|    482135 |    5146   268775 22346308 |    47208    31543     38 |        0 |     28982     38975 |
|    728271 |    5129   261497 22194006 |    57843    43514     52 |        0 |     49957     63428 |
|   1087076 |    5128   287774 22549078 |    71218    50494     51 |        0 |     77440     89708 |
=====================================================================================================
Number of solutions   : 0
Canonical subgraphs   : 108027         (106 /sec)
          order  3    : 1              (100000 /sec)
          order  4    : 1              (333333 /sec)
          order  5    : 1              (142857 /sec)
          order  6    : 1              (34483 /sec)
          order  7    : 2              (7692 /sec)
          order  8    : 6              (2427 /sec)
          order  9    : 13             (569 /sec)
          order 10    : 57             (298 /sec)
          order 11    : 217            (219 /sec)
          order 12    : 1010           (202 /sec)
          order 13    : 4672           (153 /sec)
          order 14    : 31586          (118 /sec)
          order 15    : 33164          (104 /sec)
          order 16    : 26617          (97 /sec)
          order 17    : 9008           (92 /sec)
          order 18    : 1506           (90 /sec)
          order 19    : 104            (108 /sec)
          order 20    : 61             (123 /sec)
          order 21    : 0              (-nan /sec)
Noncanonical subgraphs: 141930         (896 /sec)
          order  3    : 0              (-nan /sec)
          order  4    : 0              (-nan /sec)
          order  5    : 0              (-nan /sec)
          order  6    : 0              (-nan /sec)
          order  7    : 0              (-nan /sec)
          order  8    : 0              (-nan /sec)
          order  9    : 0              (-nan /sec)
          order 10    : 0              (-nan /sec)
          order 11    : 0              (-nan /sec)
          order 12    : 0              (-nan /sec)
          order 13    : 7646           (8027 /sec)
          order 14    : 119304         (873 /sec)
          order 15    : 14713          (733 /sec)
          order 16    : 134            (880 /sec)
          order 17    : 51             (1106 /sec)
          order 18    : 16             (2784 /sec)
          order 19    : 0              (-nan /sec)
          order 20    : 0              (-nan /sec)
Canonicity checking   : 1015.66 s
Noncanonicity checking: 158.464 s
Total canonicity time : 1174.12 s
database reductions   : 68
restarts              : 3015
conflicts             : 1527665        (730 /sec)
decisions             : 2060067        (0.00 % random) (984 /sec)
propagations          : 176493074      (84281 /sec)
conflict literals     : 137629875      (54.18 % deleted)
actual reward         : 0.125437
Memory used           : 299.00 MB
CPU time              : 2094.1 s

UNSATISFIABLE
